
Gurobi 10.0.1 (linux64) logging started Sun Nov 26 15:43:26 2023

Set parameter LogFile to value "ArtificialInstance/ExperimentV2/S2T5K1/BaSp/gurobi91.txt"
Gurobi Optimizer version 10.0.1 build v10.0.1rc0 (linux64)

CPU model: AMD EPYC 7H12 64-Core Processor, instruction set [SSE2|AVX|AVX2]
Thread count: 128 physical cores, 128 logical processors, using up to 32 threads

Academic license 656792 - for non-commercial use only - registered to b.___@student.vu.nl
Optimize a model with 1420 rows, 2160 columns and 7040 nonzeros
Model fingerprint: 0x1b29a8ce
Variable types: 0 continuous, 2160 integer (2160 binary)
Coefficient statistics:
  Matrix range     [1e+00, 1e+00]
  Objective range  [2e+00, 2e+01]
  Bounds range     [1e+00, 1e+00]
  RHS range        [1e+00, 1e+00]
Found heuristic solution: objective 641.0328958
Presolve time: 0.01s
Presolved: 1420 rows, 2160 columns, 7040 nonzeros
Variable types: 0 continuous, 2160 integer (2160 binary)

Root relaxation: objective 3.454021e+01, 1080 iterations, 0.02 seconds (0.02 work units)

    Nodes    |    Current Node    |     Objective Bounds      |     Work
 Expl Unexpl |  Obj  Depth IntInf | Incumbent    BestBd   Gap | It/Node Time

     0     0   34.54021    0  210  641.03290   34.54021  94.6%     -    0s
H    0     0                     207.3070527   34.54021  83.3%     -    0s
H    0     0                      58.3760743   34.54021  40.8%     -    0s
H    0     0                      46.8553376   36.40115  22.3%     -    0s
     0     0   38.00307    0  262   46.85534   38.00307  18.9%     -    0s
H    0     0                      44.4211528   38.00307  14.4%     -    0s
     0     0   40.22056    0  230   44.42115   40.22056  9.46%     -    0s
     0     0   41.43571    0  226   44.42115   41.43571  6.72%     -    0s
     0     0   41.43571    0  209   44.42115   41.43571  6.72%     -    0s
H    0     0                      44.4023158   41.43571  6.68%     -    0s
     0     0   41.43571    0  173   44.40232   41.43571  6.68%     -    0s
     0     0   41.43571    0  185   44.40232   41.43571  6.68%     -    0s
     0     0   41.43571    0  275   44.40232   41.43571  6.68%     -    0s
     0     0   41.43571    0  283   44.40232   41.43571  6.68%     -    0s
     0     0   41.43571    0  286   44.40232   41.43571  6.68%     -    0s
     0     0   41.43571    0  284   44.40232   41.43571  6.68%     -    0s

Cutting planes:
  Gomory: 13
  Zero half: 58
  RLT: 17

Explored 1 nodes (4632 simplex iterations) in 0.53 seconds (0.22 work units)
Thread count was 32 (of 128 available processors)

Solution count 6: 44.4023 44.4212 46.8553 ... 641.033

Optimal solution found (tolerance 1.00e-04)
Best objective 4.440231575453e+01, best bound 4.440231575453e+01, gap 0.0000%
